benchmarks/bfuzz0/10065189112371923571231113468782731912.smt2
(set-logic QF_FP)
(declare-const x0 (_ FloatingPoint 11 53))
(declare-const x1 (_ FloatingPoint 11 53))
(declare-const x2 (_ FloatingPoint 11 53))
(declare-const x3 (_ FloatingPoint 11 53))
(declare-const x4 (_ FloatingPoint 11 53))
(declare-const x5 (_ FloatingPoint 11 53))
(declare-const x6 (_ FloatingPoint 11 53))
(declare-const x7 (_ FloatingPoint 11 53))
(declare-const x8 (_ FloatingPoint 11 53))
(declare-const x9 (_ FloatingPoint 11 53))
(declare-const x10 (_ FloatingPoint 11 53))
(declare-const x11 (_ FloatingPoint 11 53))
(declare-const x12 (_ FloatingPoint 11 53))
(declare-const x13 (_ FloatingPoint 11 53))
(declare-const x14 (_ FloatingPoint 11 53))
(declare-const x15 (_ FloatingPoint 11 53))
(declare-const x16 (_ FloatingPoint 11 53))
(declare-const x17 (_ FloatingPoint 11 53))
(declare-const x18 (_ FloatingPoint 11 53))
(declare-const x19 (_ FloatingPoint 11 53))
(declare-const x20 (_ FloatingPoint 11 53))
(declare-const x21 (_ FloatingPoint 11 53))
(declare-const x22 (_ FloatingPoint 11 53))
(declare-const x23 (_ FloatingPoint 11 53))
(declare-const x24 (_ FloatingPoint 11 53))
(declare-const x25 (_ FloatingPoint 11 53))
(assert (fp.eq (fp.sub RNE (fp.add RNE (fp.mul RNE (fp.div RNE x22 x6) (fp.neg x12)) (fp.neg (fp.div RNE x22 x18))) (fp.neg (fp.neg (fp.add RNE x18 x12)))) (fp.sub RNE (fp.add RNE (fp.neg (fp.div RNE x8 x19)) (fp.add RNE (fp.neg x5) (fp.add RNE x23 x19))) (fp.sub RNE (fp.add RNE (fp.add RNE x25 x21) (fp.div RNE x19 x1)) (fp.div RNE (fp.neg x10) (fp.sub RNE x21 x15))))))
(assert (fp.leq (fp.mul RNE (fp.add RNE (fp.sub RNE (fp.div RNE x25 x0) (fp.add RNE x22 x22)) (fp.neg (fp.mul RNE x8 x20))) (fp.add RNE (fp.mul RNE (fp.div RNE x11 x18) (fp.add RNE x15 x24)) (fp.mul RNE (fp.add RNE x1 x0) (fp.neg x17)))) (fp.div RNE (fp.add RNE (fp.add RNE (fp.neg x15) (fp.mul RNE x19 x7)) (fp.add RNE (fp.add RNE x6 x18) (fp.div RNE x5 x25))) (fp.div RNE (fp.div RNE (fp.neg x13) (fp.div RNE x8 x22)) (fp.neg (fp.div RNE x14 x2))))))
(check-sat)
