db/data/10065189112371923571231113468782731912.z3.out
-------------------
2500.111738346
